\ Model Routes
\ LP format - for model browsing. Use MPS format to capture full model detail.
Maximize
  1305.427206194839 R{0,0} + 2363.878024458567 R{0,1}
   + 2363.878024458567 R{0,2} - 249.2301939667805 R{0,3}
   + 234.7650315204939 R{0,4} + 397.2891588355392 R{0,5}
   + 1746.710528607767 R{0,6} + 2037.033680270479 R{0,7}
   + 2250.699345239539 R{0,8} + 2196.869062174293 R{0,9}
   + 790.9247632110726 R{0,10} + 1568.290726539442 R{0,11}
   + 2212.372212280527 R{0,12} + 1597.831783514389 R{0,13}
   + 2121.557483378376 R{0,14} + 1132.615274224227 R{0,15}
   + 1520.445074352482 R{0,16} + 1605.065545426428 R{0,17}
   + 1794.897477084608 R{0,18} + 1432.278672829693 R{0,19}
   + 1870.66778671055 R{0,20} + 1227.68200510271 R{0,21}
   + 1681.164317940725 R{0,22} + 1733.865314130041 R{0,23}
   + 1885.616474035926 R{0,24} + 1450.621613436226 R{0,25}
   + 1268.35628470531 R{0,26} + 637.6183788902954 R{0,27}
   + 2149.889919939855 R{0,28} + 921.2041830194762 R{0,29}
   + 1006.767197955397 R{0,30} + 912.3667152733847 R{0,31}
   + 1707.164529146491 R{0,32} + 978.7047295935713 R{0,33}
   + 1812.417273909895 R{0,34} + 681.1822404550151 R{0,35}
   + 1621.280800968049 R{0,36} + 1053.950031899844 R{0,37}
   + 937.5576303369596 R{0,38} + 1597.837737900036 R{0,39}
   + 926.5752026821137 R{0,40} + 1288.823165970102 R{0,41}
   + 902.7984213354503 R{0,42} + 1963.565362397455 R{0,43}
   + 689.6272995749109 R{0,44} + 789.9635534990668 R{0,45}
   + 435.378617201618 R{0,46} + 2001.040762698895 R{0,47}
   + 597.0661297465149 R{0,48} + 1620.232258411442 R{0,49}
   + 297.3371789550108 R{0,50} + 2259.779944866581 R{0,51}
   + 71.59890999481831 R{0,52} - 256.140831891889 R{1,0}
   + 22.55008804458731 R{1,1} + 1141.439937477706 R{1,2}
   + 1141.439937477706 R{1,3} + 1286.790585002243 R{1,4}
   + 2243.859435782993 R{1,5} + 972.539282825478 R{1,6}
   + 776.7557144686556 R{1,7} + 1603.637139426654 R{1,8}
   + 993.7244981447609 R{1,9} + 517.7247791075096 R{1,10}
   + 521.5681751593241 R{1,11} + 115.0586032119298 R{1,12}
   + 891.9239651532528 R{1,13} + 1089.540131611161 R{1,14}
   + 1267.920955261333 R{1,15} + 343.9827156631438 R{1,16}
   + 519.4143911348251 R{1,17} + 975.3956861819925 R{1,18}
   + 713.1662463377869 R{1,19} + 573.2335908219726 R{1,20}
   + 1455.029345873591 R{1,21} + 436.7852273002234 R{1,22}
   + 193.4953819941704 R{1,23} + 1342.681820314859 R{1,24}
   + 370.3327137211415 R{1,25} + 155.8387343549493 R{1,26}
   + 713.1662463377869 R{1,27} + 1321.035560389871 R{1,28}
   + 155.8387343549493 R{1,29} + 694.4259456467673 R{1,30}
   + 644.6226871880485 R{1,31} + 479.4643296657927 R{1,32}
   + 115.296327710319 R{1,33} + 603.7131431802413 R{1,34}
   + 334.9549933668259 R{1,35} + 834.4984409486597 R{1,36}
   + 1603.637139426654 R{1,37} + 251.2301592688572 R{1,38}
   + 537.3064585313368 R{1,39} - 278.4443928850388 R{2,0}
   - 59.13410337035452 R{2,1} + 602.7748664658451 R{2,2}
   + 1100.505917706273 R{2,3} + 1190.170688672337 R{2,4}
   + 658.9260592062412 R{2,5} + 913.8208773479373 R{2,6}
   + 548.1250210445722 R{2,7} + 481.8339840066735 R{2,8}
   + 553.3344760963752 R{2,9} + 92.32002668436337 R{2,10}
   + 124.111107645844 R{2,11} + 245.0354612688821 R{2,12}
   + 913.8208773479373 R{2,13} + 32.16222652871855 R{2,14}
   + 58.9385361778202 R{2,15} + 166.915855543099 R{2,16}
   - 260.2482995389823 R{3,0} + 967.7221973521264 R{3,1}
   + 2038.112677924125 R{3,2} + 2399.115395194246 R{3,3}
   + 2091.015999181799 R{3,4} + 2202.349679952467 R{3,5}
   + 1724.783018282914 R{3,6} + 1905.916773583416 R{3,7}
   + 1223.136198634414 R{3,8} + 556.8785615761328 R{3,9}
   + 1715.609267396191 R{3,10} + 1528.76594647957 R{3,11}
   + 269.6096049935961 R{3,12} + 644.411534899886 R{3,13}
   + 1553.313214789183 R{3,14} + 1190.573903287009 R{3,15}
   + 1095.245308748471 R{3,16} + 1508.296390953552 R{3,17}
   + 982.4188156995892 R{3,18} + 933.9651209851472 R{3,19}
   + 443.6112821873861 R{3,20} + 1682.055928227343 R{3,21}
   + 933.0398241734083 R{3,22} + 1046.468192305456 R{3,23}
   + 1584.414263739715 R{3,24} + 1292.877489872555 R{3,25}
   + 888.8096113289216 R{3,26} + 819.7804338601356 R{3,27}
   + 1095.245308748471 R{3,28} + 499.9046283704797 R{3,29}
   + 491.8795968814301 R{3,30} + 2195.224675142118 R{3,31}
   + 1366.393500368928 R{3,32} + 1256.48623650913 R{3,33}
   + 1160.537170488899 R{3,34} + 1180.006175817075 R{3,35}
   + 1673.368353390571 R{3,36} + 1095.245308748471 R{3,37}
   + 1720.930743095625 R{3,38} + 969.4077613486259 R{3,39}
   - 242.5208875955131 R{4,0} + 865.9724748373851 R{4,1}
   + 1386.596574514046 R{4,2} + 1849.500492094809 R{4,3}
   + 1495.423707520373 R{4,4} + 2277.080290313079 R{4,5}
   + 1023.309381482999 R{4,6} + 1425.159663885629 R{4,7}
   + 851.9803279235309 R{4,8} + 961.6979379291101 R{4,9}
   + 1247.293171563033 R{4,10} + 966.0694355084952 R{4,11}
   + 1015.573721981226 R{4,12} + 813.6521397098381 R{4,13}
   + 796.0599719858328 R{4,14} + 2030.275487398732 R{4,15}
   + 499.1542988345502 R{4,16} + 1038.934027869788 R{4,17}
   + 694.2684804008031 R{4,18} + 592.3026892643315 R{4,19}
   + 669.1507271295858 R{4,20} + 716.9749635889165 R{4,21}
   + 980.7624752420832 R{4,22} + 367.7775729379351 R{4,23}
   + 788.8819785758326 R{4,24} + 406.4527241908085 R{4,25}
   + 1128.239372935921 R{4,26} + 1151.816775372355 R{4,27}
   + 966.0694355084952 R{4,28} + 816.0283030564165 R{4,29}
   + 691.1866037877546 R{4,30} + 1487.937747161161 R{4,31}
   + 342.6726723394568 R{4,32} + 845.7571109074686 R{4,33}
   + 622.0230031162778 R{4,34} + 600.5126579100613 R{4,35}
   + 792.1184011471156 R{4,36} + 1231.891716961368 R{4,37}
   + 972.1227040542983 R{4,38} + 527.7583697525238 R{4,39}
   + 845.7571109074686 R{4,40} + 66.59984423109677 R{4,41}
   + 841.1428631453776 R{4,42} + 578.500611474085 R{4,43}
   + 600.5126579100613 R{4,44} + 751.3858490724758 R{4,45}
   + 841.1428631453776 R{4,46} + 292.1273481445734 R{4,47}
   + 654.8689448636712 R{4,48} + 848.529420214692 R{4,49}
   + 1538.597622463956 R{4,50} - 231.9775664337766 R{5,0}
   + 40.49903117334031 R{5,1} + 364.0546919427258 R{5,2}
   + 1073.277012296452 R{5,3} + 720.7609652977696 R{5,4}
   + 907.6897987585237 R{5,5} + 543.2493769505429 R{5,6}
   + 407.6661556965278 R{5,7} + 1399.518039520362 R{5,8}
   + 676.443142000786 R{5,9} + 1099.438682272361 R{5,10}
   + 1405.794195945248 R{5,11} + 752.8530332248197 R{5,12}
   + 239.2716902837755 R{5,13} + 430.1807723392657 R{5,14}
   + 1013.300043809791 R{5,15} + 488.2166842427913 R{5,16}
   + 371.3935365353548 R{5,17} + 678.7780143864554 R{5,18}
   + 469.8836574487257 R{5,19} + 744.953076993422 R{5,20}
   + 749.1549991101847 R{5,21} + 255.9856148082136 R{5,22}
   - 231.1436095783099 R{6,0} + 120.1285528432641 R{6,1}
   + 1144.238169502638 R{6,2} + 1709.383530245978 R{6,3}
   + 1854.498179717891 R{6,4} + 958.6129924442937 R{6,5}
   + 2214.480896139432 R{6,6} + 1072.993487728707 R{6,7}
   + 1756.168963973902 R{6,8} + 1720.454953713912 R{6,9}
   + 2297.153255099844 R{6,10} + 2214.480896139432 R{6,11}
   + 1486.485282747842 R{6,12} + 1000.472595407148 R{6,13}
   + 1979.356591013971 R{6,14} + 2214.480896139432 R{6,15}
   + 1496.843597552283 R{6,16} + 288.1809349062086 R{6,17}
   + 2214.480896139432 R{6,18} + 1122.718777873062 R{6,19}
   + 2083.948926049561 R{6,20} + 896.4596541010403 R{6,21}
   + 1554.721941579741 R{6,22} + 1228.103086251726 R{6,23}
   + 942.0565831648771 R{6,24} + 1494.396839189948 R{6,25}
   + 1367.574251975178 R{6,26} + 1282.578023510744 R{6,27}
   + 1680.688973079444 R{6,28} + 1285.237984469774 R{6,29}
   + 1493.699094191486 R{6,30} + 1034.121958999126 R{6,31}
   + 581.9002313023595 R{6,32} + 1152.666898210029 R{6,33}
   + 1049.965570042844 R{6,34} + 1131.08397715294 R{6,35}
   + 1689.121956792692 R{6,36} + 684.4980303953587 R{6,37}
   + 886.1980840339659 R{6,38} + 1691.508376591775 R{6,39}
   + 602.2488462112934 R{6,40} + 922.3326409003889 R{6,41}
   + 2213.698893828914 R{6,42} + 1164.386339198931 R{6,43}
   + 1765.570410233674 R{6,44} + 933.1750300621138 R{6,45}
   + 859.9030806822796 R{6,46} + 1458.598490730787 R{6,47}
   + 2410.176316644715 R{6,48} + 978.116135665013 R{6,49}
   + 1079.439926790611 R{6,50} + 1239.698489751406 R{6,51}
Subject To
 R00: R{0,0} <= 1
 R01: R{0,1} <= 1
 R02: R{0,2} <= 1
 R03: R{0,3} <= 1
 R04: R{0,4} <= 1
 R05: R{0,5} <= 1
 R06: R{0,6} <= 1
 R07: R{0,7} <= 1
 R08: R{0,8} <= 1
 R09: R{0,9} <= 1
 R010: R{0,10} <= 1
 R011: R{0,11} <= 1
 R012: R{0,12} <= 1
 R013: R{0,13} <= 1
 R014: R{0,14} <= 1
 R015: R{0,15} <= 1
 R016: R{0,16} <= 1
 R017: R{0,17} <= 1
 R018: R{0,18} <= 1
 R019: R{0,19} <= 1
 R020: R{0,20} <= 1
 R021: R{0,21} <= 1
 R022: R{0,22} <= 1
 R023: R{0,23} <= 1
 R024: R{0,24} <= 1
 R025: R{0,25} <= 1
 R026: R{0,26} <= 1
 R027: R{0,27} <= 1
 R028: R{0,28} <= 1
 R029: R{0,29} <= 1
 R030: R{0,30} <= 1
 R031: R{0,31} <= 1
 R032: R{0,32} <= 1
 R033: R{0,33} <= 1
 R034: R{0,34} <= 1
 R035: R{0,35} <= 1
 R036: R{0,36} <= 1
 R037: R{0,37} <= 1
 R038: R{0,38} <= 1
 R039: R{0,39} <= 1
 R040: R{0,40} <= 1
 R041: R{0,41} <= 1
 R042: R{0,42} <= 1
 R043: R{0,43} <= 1
 R044: R{0,44} <= 1
 R045: R{0,45} <= 1
 R046: R{0,46} <= 1
 R047: R{0,47} <= 1
 R048: R{0,48} <= 1
 R049: R{0,49} <= 1
 R050: R{0,50} <= 1
 R051: R{0,51} <= 1
 R052: R{0,52} <= 1
 R053: R{1,0} <= 1
 R054: R{1,1} <= 1
 R055: R{1,2} <= 1
 R056: R{1,3} <= 1
 R057: R{1,4} <= 1
 R058: R{1,5} <= 1
 R059: R{1,6} <= 1
 R060: R{1,7} <= 1
 R061: R{1,8} <= 1
 R062: R{1,9} <= 1
 R063: R{1,10} <= 1
 R064: R{1,11} <= 1
 R065: R{1,12} <= 1
 R066: R{1,13} <= 1
 R067: R{1,14} <= 1
 R068: R{1,15} <= 1
 R069: R{1,16} <= 1
 R070: R{1,17} <= 1
 R071: R{1,18} <= 1
 R072: R{1,19} <= 1
 R073: R{1,20} <= 1
 R074: R{1,21} <= 1
 R075: R{1,22} <= 1
 R076: R{1,23} <= 1
 R077: R{1,24} <= 1
 R078: R{1,25} <= 1
 R079: R{1,26} <= 1
 R080: R{1,27} <= 1
 R081: R{1,28} <= 1
 R082: R{1,29} <= 1
 R083: R{1,30} <= 1
 R084: R{1,31} <= 1
 R085: R{1,32} <= 1
 R086: R{1,33} <= 1
 R087: R{1,34} <= 1
 R088: R{1,35} <= 1
 R089: R{1,36} <= 1
 R090: R{1,37} <= 1
 R091: R{1,38} <= 1
 R092: R{1,39} <= 1
 R093: R{2,0} <= 1
 R094: R{2,1} <= 1
 R095: R{2,2} <= 1
 R096: R{2,3} <= 1
 R097: R{2,4} <= 1
 R098: R{2,5} <= 1
 R099: R{2,6} <= 1
 R0100: R{2,7} <= 1
 R0101: R{2,8} <= 1
 R0102: R{2,9} <= 1
 R0103: R{2,10} <= 1
 R0104: R{2,11} <= 1
 R0105: R{2,12} <= 1
 R0106: R{2,13} <= 1
 R0107: R{2,14} <= 1
 R0108: R{2,15} <= 1
 R0109: R{2,16} <= 1
 R0110: R{3,0} <= 1
 R0111: R{3,1} <= 1
 R0112: R{3,2} <= 1
 R0113: R{3,3} <= 1
 R0114: R{3,4} <= 1
 R0115: R{3,5} <= 1
 R0116: R{3,6} <= 1
 R0117: R{3,7} <= 1
 R0118: R{3,8} <= 1
 R0119: R{3,9} <= 1
 R0120: R{3,10} <= 1
 R0121: R{3,11} <= 1
 R0122: R{3,12} <= 1
 R0123: R{3,13} <= 1
 R0124: R{3,14} <= 1
 R0125: R{3,15} <= 1
 R0126: R{3,16} <= 1
 R0127: R{3,17} <= 1
 R0128: R{3,18} <= 1
 R0129: R{3,19} <= 1
 R0130: R{3,20} <= 1
 R0131: R{3,21} <= 1
 R0132: R{3,22} <= 1
 R0133: R{3,23} <= 1
 R0134: R{3,24} <= 1
 R0135: R{3,25} <= 1
 R0136: R{3,26} <= 1
 R0137: R{3,27} <= 1
 R0138: R{3,28} <= 1
 R0139: R{3,29} <= 1
 R0140: R{3,30} <= 1
 R0141: R{3,31} <= 1
 R0142: R{3,32} <= 1
 R0143: R{3,33} <= 1
 R0144: R{3,34} <= 1
 R0145: R{3,35} <= 1
 R0146: R{3,36} <= 1
 R0147: R{3,37} <= 1
 R0148: R{3,38} <= 1
 R0149: R{3,39} <= 1
 R0150: R{4,0} <= 1
 R0151: R{4,1} <= 1
 R0152: R{4,2} <= 1
 R0153: R{4,3} <= 1
 R0154: R{4,4} <= 1
 R0155: R{4,5} <= 1
 R0156: R{4,6} <= 1
 R0157: R{4,7} <= 1
 R0158: R{4,8} <= 1
 R0159: R{4,9} <= 1
 R0160: R{4,10} <= 1
 R0161: R{4,11} <= 1
 R0162: R{4,12} <= 1
 R0163: R{4,13} <= 1
 R0164: R{4,14} <= 1
 R0165: R{4,15} <= 1
 R0166: R{4,16} <= 1
 R0167: R{4,17} <= 1
 R0168: R{4,18} <= 1
 R0169: R{4,19} <= 1
 R0170: R{4,20} <= 1
 R0171: R{4,21} <= 1
 R0172: R{4,22} <= 1
 R0173: R{4,23} <= 1
 R0174: R{4,24} <= 1
 R0175: R{4,25} <= 1
 R0176: R{4,26} <= 1
 R0177: R{4,27} <= 1
 R0178: R{4,28} <= 1
 R0179: R{4,29} <= 1
 R0180: R{4,30} <= 1
 R0181: R{4,31} <= 1
 R0182: R{4,32} <= 1
 R0183: R{4,33} <= 1
 R0184: R{4,34} <= 1
 R0185: R{4,35} <= 1
 R0186: R{4,36} <= 1
 R0187: R{4,37} <= 1
 R0188: R{4,38} <= 1
 R0189: R{4,39} <= 1
 R0190: R{4,40} <= 1
 R0191: R{4,41} <= 1
 R0192: R{4,42} <= 1
 R0193: R{4,43} <= 1
 R0194: R{4,44} <= 1
 R0195: R{4,45} <= 1
 R0196: R{4,46} <= 1
 R0197: R{4,47} <= 1
 R0198: R{4,48} <= 1
 R0199: R{4,49} <= 1
 R0200: R{4,50} <= 1
 R0201: R{5,0} <= 1
 R0202: R{5,1} <= 1
 R0203: R{5,2} <= 1
 R0204: R{5,3} <= 1
 R0205: R{5,4} <= 1
 R0206: R{5,5} <= 1
 R0207: R{5,6} <= 1
 R0208: R{5,7} <= 1
 R0209: R{5,8} <= 1
 R0210: R{5,9} <= 1
 R0211: R{5,10} <= 1
 R0212: R{5,11} <= 1
 R0213: R{5,12} <= 1
 R0214: R{5,13} <= 1
 R0215: R{5,14} <= 1
 R0216: R{5,15} <= 1
 R0217: R{5,16} <= 1
 R0218: R{5,17} <= 1
 R0219: R{5,18} <= 1
 R0220: R{5,19} <= 1
 R0221: R{5,20} <= 1
 R0222: R{5,21} <= 1
 R0223: R{5,22} <= 1
 R0224: R{6,0} <= 1
 R0225: R{6,1} <= 1
 R0226: R{6,2} <= 1
 R0227: R{6,3} <= 1
 R0228: R{6,4} <= 1
 R0229: R{6,5} <= 1
 R0230: R{6,6} <= 1
 R0231: R{6,7} <= 1
 R0232: R{6,8} <= 1
 R0233: R{6,9} <= 1
 R0234: R{6,10} <= 1
 R0235: R{6,11} <= 1
 R0236: R{6,12} <= 1
 R0237: R{6,13} <= 1
 R0238: R{6,14} <= 1
 R0239: R{6,15} <= 1
 R0240: R{6,16} <= 1
 R0241: R{6,17} <= 1
 R0242: R{6,18} <= 1
 R0243: R{6,19} <= 1
 R0244: R{6,20} <= 1
 R0245: R{6,21} <= 1
 R0246: R{6,22} <= 1
 R0247: R{6,23} <= 1
 R0248: R{6,24} <= 1
 R0249: R{6,25} <= 1
 R0250: R{6,26} <= 1
 R0251: R{6,27} <= 1
 R0252: R{6,28} <= 1
 R0253: R{6,29} <= 1
 R0254: R{6,30} <= 1
 R0255: R{6,31} <= 1
 R0256: R{6,32} <= 1
 R0257: R{6,33} <= 1
 R0258: R{6,34} <= 1
 R0259: R{6,35} <= 1
 R0260: R{6,36} <= 1
 R0261: R{6,37} <= 1
 R0262: R{6,38} <= 1
 R0263: R{6,39} <= 1
 R0264: R{6,40} <= 1
 R0265: R{6,41} <= 1
 R0266: R{6,42} <= 1
 R0267: R{6,43} <= 1
 R0268: R{6,44} <= 1
 R0269: R{6,45} <= 1
 R0270: R{6,46} <= 1
 R0271: R{6,47} <= 1
 R0272: R{6,48} <= 1
 R0273: R{6,49} <= 1
 R0274: R{6,50} <= 1
 R0275: R{6,51} <= 1
 R1_0: R{0,0} + R{0,1} + R{0,2} + R{0,3} + R{0,4} + R{0,5} + R{0,6}
   + R{0,7} + R{0,8} + R{0,9} + R{0,10} + R{0,11} + R{0,12} + R{0,13}
   + R{0,14} + R{0,15} + R{0,16} + R{0,17} + R{0,18} + R{0,19} + R{0,20}
   + R{0,21} + R{0,22} + R{0,23} + R{0,24} + R{0,25} + R{0,26} + R{0,27}
   + R{0,28} + R{0,29} + R{0,30} + R{0,31} + R{0,32} + R{0,33} + R{0,34}
   + R{0,35} + R{0,36} + R{0,37} + R{0,38} + R{0,39} + R{0,40} + R{0,41}
   + R{0,42} + R{0,43} + R{0,44} + R{0,45} + R{0,46} + R{0,47} + R{0,48}
   + R{0,49} + R{0,50} + R{0,51} + R{0,52} <= 1
 R1_1: R{1,0} + R{1,1} + R{1,2} + R{1,3} + R{1,4} + R{1,5} + R{1,6}
   + R{1,7} + R{1,8} + R{1,9} + R{1,10} + R{1,11} + R{1,12} + R{1,13}
   + R{1,14} + R{1,15} + R{1,16} + R{1,17} + R{1,18} + R{1,19} + R{1,20}
   + R{1,21} + R{1,22} + R{1,23} + R{1,24} + R{1,25} + R{1,26} + R{1,27}
   + R{1,28} + R{1,29} + R{1,30} + R{1,31} + R{1,32} + R{1,33} + R{1,34}
   + R{1,35} + R{1,36} + R{1,37} + R{1,38} + R{1,39} <= 1
 R1_2: R{2,0} + R{2,1} + R{2,2} + R{2,3} + R{2,4} + R{2,5} + R{2,6}
   + R{2,7} + R{2,8} + R{2,9} + R{2,10} + R{2,11} + R{2,12} + R{2,13}
   + R{2,14} + R{2,15} + R{2,16} <= 1
 R1_3: R{3,0} + R{3,1} + R{3,2} + R{3,3} + R{3,4} + R{3,5} + R{3,6}
   + R{3,7} + R{3,8} + R{3,9} + R{3,10} + R{3,11} + R{3,12} + R{3,13}
   + R{3,14} + R{3,15} + R{3,16} + R{3,17} + R{3,18} + R{3,19} + R{3,20}
   + R{3,21} + R{3,22} + R{3,23} + R{3,24} + R{3,25} + R{3,26} + R{3,27}
   + R{3,28} + R{3,29} + R{3,30} + R{3,31} + R{3,32} + R{3,33} + R{3,34}
   + R{3,35} + R{3,36} + R{3,37} + R{3,38} + R{3,39} <= 1
 R1_4: R{4,0} + R{4,1} + R{4,2} + R{4,3} + R{4,4} + R{4,5} + R{4,6}
   + R{4,7} + R{4,8} + R{4,9} + R{4,10} + R{4,11} + R{4,12} + R{4,13}
   + R{4,14} + R{4,15} + R{4,16} + R{4,17} + R{4,18} + R{4,19} + R{4,20}
   + R{4,21} + R{4,22} + R{4,23} + R{4,24} + R{4,25} + R{4,26} + R{4,27}
   + R{4,28} + R{4,29} + R{4,30} + R{4,31} + R{4,32} + R{4,33} + R{4,34}
   + R{4,35} + R{4,36} + R{4,37} + R{4,38} + R{4,39} + R{4,40} + R{4,41}
   + R{4,42} + R{4,43} + R{4,44} + R{4,45} + R{4,46} + R{4,47} + R{4,48}
   + R{4,49} + R{4,50} <= 1
 R1_5: R{5,0} + R{5,1} + R{5,2} + R{5,3} + R{5,4} + R{5,5} + R{5,6}
   + R{5,7} + R{5,8} + R{5,9} + R{5,10} + R{5,11} + R{5,12} + R{5,13}
   + R{5,14} + R{5,15} + R{5,16} + R{5,17} + R{5,18} + R{5,19} + R{5,20}
   + R{5,21} + R{5,22} <= 1
 R1_6: R{6,0} + R{6,1} + R{6,2} + R{6,3} + R{6,4} + R{6,5} + R{6,6}
   + R{6,7} + R{6,8} + R{6,9} + R{6,10} + R{6,11} + R{6,12} + R{6,13}
   + R{6,14} + R{6,15} + R{6,16} + R{6,17} + R{6,18} + R{6,19} + R{6,20}
   + R{6,21} + R{6,22} + R{6,23} + R{6,24} + R{6,25} + R{6,26} + R{6,27}
   + R{6,28} + R{6,29} + R{6,30} + R{6,31} + R{6,32} + R{6,33} + R{6,34}
   + R{6,35} + R{6,36} + R{6,37} + R{6,38} + R{6,39} + R{6,40} + R{6,41}
   + R{6,42} + R{6,43} + R{6,44} + R{6,45} + R{6,46} + R{6,47} + R{6,48}
   + R{6,49} + R{6,50} + R{6,51} <= 1
 R2_0: <= 7
 R2_1: 10 R{0,9} + 10 R{0,14} + 10 R{0,36} + 10 R{0,41} + 10 R{1,4}
   + 10 R{1,6} + 10 R{1,9} + 10 R{1,14} + 10 R{1,20} + 10 R{1,30}
   + 10 R{1,34} + 10 R{1,35} + 10 R{2,6} + 10 R{2,13} + 10 R{3,1}
   + 10 R{3,2} + 10 R{3,3} + 10 R{3,4} + 10 R{3,5} + 10 R{3,6} + 10 R{3,9}
   + 10 R{3,11} + 10 R{3,17} + 10 R{3,20} + 10 R{3,21} + 10 R{3,23}
   + 10 R{3,24} + 10 R{3,25} + 10 R{3,31} + 10 R{3,32} + 10 R{3,34}
   + 10 R{3,35} + 10 R{3,36} + 10 R{3,38} + 10 R{5,3} + 10 R{5,5}
   + 10 R{5,12} + 10 R{5,18} + 10 R{5,20} + 10 R{5,21} <= 10
 R2_2: <= 0
 R2_3: 4 R{5,1} + 4 R{5,2} + 4 R{5,8} + 4 R{5,11} + 4 R{5,15} + 4 R{5,19}
   + 4 R{5,22} <= 4
 R2_4: <= 0
 R2_5: 5 R{5,1} + 5 R{5,2} + 5 R{5,3} + 5 R{5,4} + 5 R{5,5} + 5 R{5,6}
   + 5 R{5,7} + 5 R{5,8} + 5 R{5,20} + 5 R{5,22} <= 5
 R2_6: 10 R{0,28} + 10 R{0,39} + 10 R{0,43} + 10 R{1,6} + 10 R{1,8}
   + 10 R{1,34} + 10 R{1,35} + 10 R{1,37} + 10 R{2,12} + 10 R{2,16}
   + 10 R{3,36} + 10 R{5,20} + 10 R{5,22} + 10 R{6,1} + 10 R{6,2}
   + 10 R{6,3} + 10 R{6,4} + 10 R{6,5} + 10 R{6,6} + 10 R{6,7} + 10 R{6,8}
   + 10 R{6,11} + 10 R{6,12} + 10 R{6,14} + 10 R{6,15} + 10 R{6,18}
   + 10 R{6,19} + 10 R{6,20} + 10 R{6,22} + 10 R{6,27} + 10 R{6,28}
   + 10 R{6,30} + 10 R{6,32} + 10 R{6,36} + 10 R{6,37} + 10 R{6,39}
   + 10 R{6,42} + 10 R{6,44} + 10 R{6,47} + 10 R{6,48} <= 10
 R2_7: <= 0
 R2_8: <= 0
 R2_9: <= 12
 R2_10: 8 R{3,6} + 8 R{3,11} + 8 R{3,25} + 8 R{6,1} + 8 R{6,2} + 8 R{6,3}
   + 8 R{6,4} + 8 R{6,5} + 8 R{6,9} + 8 R{6,12} + 8 R{6,17} + 8 R{6,21}
   <= 8
 R2_11: 15 R{0,23} + 15 R{0,32} + 15 R{0,51} + 15 R{3,33} + 15 R{4,21}
   + 15 R{4,33} + 15 R{4,40} + 15 R{4,42} + 15 R{4,46} + 15 R{6,26}
   + 15 R{6,27} + 15 R{6,29} + 15 R{6,31} + 15 R{6,34} + 15 R{6,38}
   + 15 R{6,43} + 15 R{6,50} + 15 R{6,51} <= 15
 R2_12: <= 0
 R2_13: <= 0
 R2_14: <= 0
 R2_15: 11 R{0,0} + 11 R{0,1} + 11 R{0,2} + 11 R{0,6} + 11 R{0,8}
   + 11 R{0,9} + 11 R{0,12} + 11 R{0,13} + 11 R{0,19} + 11 R{0,20}
   + 11 R{0,21} + 11 R{0,23} + 11 R{0,24} + 11 R{0,28} + 11 R{0,29}
   + 11 R{0,30} + 11 R{0,35} + 11 R{0,38} + 11 R{0,39} + 11 R{0,40}
   + 11 R{0,42} + 11 R{0,44} + 11 R{0,45} + 11 R{0,49} + 11 R{4,1}
   + 11 R{4,2} + 11 R{4,7} + 11 R{4,23} + 11 R{4,45} + 11 R{4,48} <= 11
 R2_16: 5 R{0,25} + 5 R{0,26} + 5 R{0,31} + 5 R{0,32} + 5 R{0,41}
   + 5 R{0,51} + 5 R{4,15} + 5 R{4,25} + 5 R{4,50} + 5 R{6,4} + 5 R{6,6}
   + 5 R{6,10} + 5 R{6,11} + 5 R{6,15} + 5 R{6,18} + 5 R{6,20} + 5 R{6,22}
   + 5 R{6,25} + 5 R{6,26} + 5 R{6,27} + 5 R{6,28} + 5 R{6,29} + 5 R{6,30}
   + 5 R{6,31} + 5 R{6,33} + 5 R{6,34} + 5 R{6,35} + 5 R{6,36} + 5 R{6,38}
   + 5 R{6,39} + 5 R{6,42} + 5 R{6,47} + 5 R{6,48} + 5 R{6,50} + 5 R{6,51}
   <= 5
 R2_17: 11 R{0,31} + 11 R{0,44} + 11 R{0,48} + 11 R{1,22} + 11 R{3,27}
   + 11 R{3,30} + 11 R{4,23} + 11 R{4,25} + 11 R{4,27} + 11 R{4,36}
   + 11 R{4,39} + 11 R{4,43} + 11 R{4,48} <= 11
 R2_18: 5 R{0,43} + 5 R{4,48} + 5 R{5,17} <= 5
 R2_19: 11 R{0,6} + 11 R{0,8} + 11 R{0,10} + 11 R{0,22} + 11 R{0,34}
   + 11 R{1,7} + 11 R{1,11} + 11 R{1,13} + 11 R{1,31} + 11 R{1,39}
   + 11 R{3,7} + 11 R{4,1} + 11 R{4,2} + 11 R{4,3} + 11 R{4,4} + 11 R{4,5}
   + 11 R{4,6} + 11 R{4,7} + 11 R{4,15} + 11 R{4,27} + 11 R{4,31}
   + 11 R{4,45} + 11 R{4,48} + 11 R{4,50} + 11 R{5,4} + 11 R{5,6}
   + 11 R{5,7} + 11 R{5,8} + 11 R{5,10} + 11 R{5,11} <= 11
 R2_20: 13 R{0,5} + 13 R{1,5} + 13 R{1,8} + 13 R{1,10} + 13 R{1,21}
   + 13 R{1,28} + 13 R{1,37} + 13 R{2,3} + 13 R{2,4} + 13 R{2,5}
   + 13 R{2,7} + 13 R{2,9} + 13 R{3,1} + 13 R{3,2} + 13 R{3,3} + 13 R{3,10}
   + 13 R{3,21} + 13 R{3,34} + 13 R{4,9} + 13 R{4,10} + 13 R{4,17}
   + 13 R{5,2} + 13 R{5,3} + 13 R{5,5} + 11 R{5,19} + 13 R{6,10} <= 13
 R2_21: <= 0
 R2_22: 5 R{0,23} + 10 R{0,30} + 10 R{0,32} + 10 R{0,42} + 10 R{0,46}
   + 10 R{0,48} + 10 R{0,51} + 10 R{0,52} + 10 R{1,21} + 10 R{3,38}
   + 10 R{4,16} + 10 R{4,19} + 10 R{4,20} + 10 R{4,47} + 10 R{5,9}
   + 10 R{6,19} + 10 R{6,27} + 10 R{6,31} + 10 R{6,41} + 10 R{6,43}
   + 10 R{6,49} <= 10
 R2_23: 14 R{3,25} + 14 R{4,3} + 14 R{4,4} + 14 R{4,5} + 14 R{4,10}
   + 14 R{4,11} + 14 R{4,12} + 14 R{4,14} + 14 R{4,17} + 14 R{4,18}
   + 14 R{4,19} + 14 R{4,20} + 14 R{4,26} + 14 R{4,27} + 14 R{4,28}
   + 14 R{4,29} + 14 R{4,31} + 14 R{4,36} + 14 R{4,37} + 14 R{4,41}
   + 14 R{6,2} + 14 R{6,3} + 14 R{6,4} + 14 R{6,6} + 14 R{6,8} + 14 R{6,9}
   + 14 R{6,10} + 14 R{6,11} + 14 R{6,13} + 14 R{6,14} + 14 R{6,15}
   + 14 R{6,17} + 14 R{6,18} + 14 R{6,20} + 14 R{6,21} + 14 R{6,22}
   + 14 R{6,23} + 14 R{6,25} + 14 R{6,28} + 14 R{6,30} + 14 R{6,33}
   + 14 R{6,36} + 14 R{6,39} + 14 R{6,42} + 14 R{6,44} + 14 R{6,47}
   + 14 R{6,48} <= 14
 R2_24: 10 R{0,7} + 10 R{0,11} + 10 R{0,15} + 10 R{0,29} + 10 R{0,37}
   + 10 R{1,20} + 10 R{2,4} + 10 R{2,5} + 10 R{2,6} + 10 R{2,9}
   + 10 R{2,13} + 10 R{3,1} + 10 R{3,2} + 10 R{3,3} + 10 R{3,4} + 10 R{3,5}
   + 10 R{3,7} + 10 R{3,8} + 10 R{3,9} + 10 R{3,10} + 10 R{3,12}
   + 10 R{3,16} + 10 R{3,23} + 10 R{3,28} + 10 R{3,31} + 10 R{3,37}
   + 10 R{3,39} + 10 R{6,21} + 10 R{6,29} + 10 R{6,34} + 10 R{6,50} <= 10
 R2_25: 13 R{0,0} + 13 R{0,1} + 13 R{0,2} + 13 R{0,6} + 13 R{0,7}
   + 13 R{0,8} + 13 R{0,9} + 13 R{0,11} + 13 R{0,13} + 13 R{0,14}
   + 13 R{0,15} + 13 R{0,17} + 13 R{0,18} + 13 R{0,19} + 13 R{0,22}
   + 10 R{0,23} + 13 R{0,24} + 13 R{0,25} + 13 R{0,26} + 13 R{0,28}
   + 13 R{0,29} + 5 R{0,32} + 13 R{0,34} + 13 R{0,36} + 13 R{0,37}
   + 13 R{0,38} + 13 R{0,41} + 13 R{0,43} + 13 R{0,45} + 13 R{0,47}
   + 13 R{0,50} + 5 R{0,51} + 13 R{1,25} + 13 R{3,6} + 13 R{3,38}
   + 13 R{4,1} + 13 R{4,2} + 13 R{4,3} + 13 R{4,4} + 10 R{4,5} + 13 R{4,6}
   + 13 R{4,7} + 13 R{4,8} + 13 R{4,9} + 13 R{4,10} + 13 R{4,14}
   + 13 R{4,15} + 13 R{4,17} + 13 R{4,18} + 13 R{4,21} + 13 R{4,22}
   + 13 R{4,26} + 13 R{4,29} + 13 R{4,31} + 13 R{4,33} + 13 R{4,37}
   + 13 R{4,40} + 13 R{4,45} + 13 R{6,29} + 13 R{6,34} + 13 R{6,50} <= 13
 R2_26: 6 R{1,1} + 6 R{1,2} + 6 R{1,3} + 6 R{1,4} + 6 R{1,5} + 6 R{1,7}
   + 6 R{1,9} + 6 R{1,10} + 6 R{1,11} + 6 R{1,12} + 6 R{1,13} + 6 R{1,21}
   + 6 R{1,23} + 6 R{1,28} + 6 R{1,30} + 6 R{1,31} + 6 R{5,9} + 6 R{5,16}
   + 6 R{6,19} <= 6
 R2_27: 5 R{0,6} + 5 R{0,7} + 5 R{0,11} + 5 R{0,17} + 5 R{0,18} + 5 R{0,22}
   + 5 R{0,25} + 5 R{0,31} + 5 R{0,33} + 5 R{0,34} + 5 R{1,2} + 5 R{1,3}
   + 5 R{1,4} + 5 R{1,5} + 5 R{1,6} + 5 R{1,7} + 5 R{1,8} + 5 R{1,9}
   + 5 R{1,13} + 5 R{1,14} + 5 R{1,15} + 5 R{1,16} + 5 R{1,17} + 5 R{1,18}
   + 5 R{1,19} + 5 R{1,21} + 5 R{1,27} + 5 R{1,37} + 5 R{3,14} + 5 R{3,22}
   + 5 R{3,26} + 5 R{3,33} <= 5
 R2_28: <= 0
 R2_29: <= 0
 R2_30: <= 0
 R2_31: 6 R{3,13} + 6 R{6,1} + 6 R{6,2} + 6 R{6,5} + 6 R{6,7} + 6 R{6,19}
   + 6 R{6,32} + 6 R{6,37} <= 6
 R2_32: 7 R{0,4} + 7 R{0,5} + 7 R{1,11} + 7 R{2,11} + 7 R{5,9} + 7 R{5,14}
   + 7 R{5,16} + 7 R{5,17} + 7 R{6,19} <= 7
 R2_33: 12 R{3,6} + 12 R{3,11} + 12 R{3,14} + 12 R{3,17} + 12 R{3,18}
   + 12 R{3,22} + 12 R{3,24} + 12 R{3,25} + 12 R{3,29} + 12 R{3,33}
   + 12 R{3,35} + 12 R{5,8} + 12 R{5,11} + 12 R{5,15} + 12 R{6,33} <= 12
 R2_34: 5 R{0,0} + 5 R{0,1} + 5 R{0,2} + 5 R{0,6} + 5 R{0,7} + 5 R{0,8}
   + 5 R{0,9} + 5 R{0,11} + 5 R{0,12} + 5 R{0,14} + 5 R{0,15} + 5 R{0,16}
   + 5 R{0,18} + 5 R{0,19} + 5 R{0,21} + 5 R{0,22} + 5 R{0,23} + 5 R{0,24}
   + 5 R{0,25} + 5 R{0,26} + 5 R{0,27} + 5 R{0,28} + 5 R{0,29} + 5 R{0,31}
   + 5 R{0,33} + 5 R{0,35} + 5 R{0,36} + 5 R{0,38} + 5 R{0,39} + 5 R{0,40}
   + 5 R{0,43} + 5 R{0,44} + 5 R{0,47} + 5 R{0,49} + 5 R{0,51} + 5 R{3,29}
   + 5 R{3,30} + 5 R{4,5} + 5 R{6,5} + 5 R{6,7} + 5 R{6,12} + 5 R{6,26}
   <= 5
 R2_35: <= 0
 R2_36: 15 R{1,1} + 15 R{1,2} + 15 R{1,3} + 15 R{1,7} + 15 R{1,10}
   + 15 R{1,23} + 15 R{1,31} + 15 R{1,39} <= 16
 R2_37: 5 R{1,12} + 5 R{1,18} + 5 R{1,22} + 5 R{1,23} + 5 R{1,39}
   + 5 R{2,14} + 5 R{5,1} + 5 R{5,13} + 5 R{5,14} + 5 R{5,17} + 5 R{5,21}
   + 5 R{6,43} <= 5
 R2_38: <= 0
 R2_39: 15 R{0,0} + 15 R{0,1} + 15 R{0,2} + 15 R{0,6} + 15 R{0,7}
   + 15 R{0,8} + 15 R{0,14} + 15 R{0,17} + 15 R{0,19} + 15 R{0,22}
   + 15 R{0,24} + 15 R{0,29} + 15 R{0,30} + 15 R{0,34} + 15 R{0,35}
   + 15 R{0,36} + 15 R{0,38} + 15 R{0,44} + 15 R{0,45} + 15 R{0,48}
   + 15 R{0,49} + 15 R{0,50} <= 17
 R2_40: 15 R{1,33} + 15 R{2,1} + 15 R{2,2} + 15 R{2,3} + 15 R{2,4}
   + 15 R{2,5} + 15 R{2,6} + 15 R{2,7} + 15 R{2,9} + 15 R{2,10}
   + 15 R{2,11} + 15 R{2,12} + 15 R{2,13} + 15 R{2,14} + 15 R{2,16}
   + 15 R{5,16} + 15 R{5,18} + 15 R{5,19} + 15 R{6,29} <= 15
 R2_41: 5 R{0,0} + 5 R{0,1} + 5 R{0,2} + 5 R{0,7} + 5 R{0,8} + 5 R{0,9}
   + 5 R{0,12} + 5 R{0,13} + 5 R{0,14} + 5 R{0,16} + 5 R{0,19} + 5 R{0,20}
   + 5 R{0,21} + 5 R{0,23} + 5 R{0,24} + 5 R{0,25} + 5 R{0,26} + 5 R{0,28}
   + 5 R{0,30} + 5 R{0,32} + 5 R{0,34} + 5 R{0,36} + 5 R{0,37} + 5 R{0,41}
   + 5 R{0,43} + 5 R{0,45} + 5 R{0,47} + 5 R{0,49} + 5 R{0,51} + 5 R{1,4}
   + 5 R{1,5} + 5 R{1,8} + 5 R{1,9} + 5 R{1,14} + 5 R{1,15} + 5 R{1,17}
   + 5 R{1,18} + 5 R{1,19} + 5 R{1,21} + 5 R{1,24} + 5 R{1,25} + 5 R{1,26}
   + 5 R{1,27} + 5 R{1,28} + 5 R{1,29} + 5 R{1,32} + 5 R{1,36} + 5 R{1,37}
   + 5 R{3,2} + 5 R{3,3} + 5 R{3,4} + 5 R{3,5} + 5 R{3,7} + 5 R{3,8}
   + 5 R{3,16} + 5 R{3,19} + 5 R{3,21} + 5 R{3,26} + 5 R{3,28} + 5 R{3,31}
   + 5 R{3,34} + 5 R{3,36} + 5 R{3,37} + 5 R{3,39} + 5 R{4,11} + 5 R{4,12}
   + 5 R{4,13} + 5 R{4,18} + 5 R{4,20} + 5 R{4,22} + 5 R{4,24} + 5 R{4,26}
   + 5 R{4,28} + 5 R{4,30} + 5 R{4,31} + 5 R{4,33} + 5 R{4,35} + 5 R{4,37}
   + 5 R{4,38} + 5 R{4,40} + 5 R{4,42} + 5 R{4,43} + 5 R{4,44} + 5 R{4,46}
   + 5 R{4,49} + 5 R{4,50} + 5 R{6,6} + 5 R{6,9} + 5 R{6,10} + 5 R{6,11}
   + 5 R{6,13} + 5 R{6,15} + 5 R{6,16} + 5 R{6,18} + 5 R{6,20} + 5 R{6,22}
   + 5 R{6,24} + 5 R{6,25} + 5 R{6,26} + 5 R{6,28} + 5 R{6,30} + 5 R{6,32}
   + 5 R{6,34} + 5 R{6,36} + 5 R{6,38} + 5 R{6,40} + 5 R{6,42} + 5 R{6,45}
   + 5 R{6,46} + 5 R{6,48} + 5 R{6,51} <= 5
 R2_42: 4 R{2,1} + 4 R{2,2} + 4 R{2,3} + 4 R{2,4} + 4 R{2,5} + 4 R{2,8}
   + 4 R{2,11} + 4 R{2,12} <= 4
 R2_43: <= 0
 R2_44: <= 0
 R2_45: <= 0
 R2_46: 9 R{0,9} + 9 R{0,11} + 9 R{0,12} + 9 R{0,13} + 9 R{0,15}
   + 9 R{0,16} + 9 R{0,18} + 9 R{0,20} + 9 R{0,21} + 9 R{0,27} + 9 R{0,28}
   + 9 R{0,33} + 9 R{0,37} + 9 R{0,39} + 9 R{0,40} + 9 R{0,42} + 9 R{0,43}
   + 9 R{0,46} + 9 R{0,47} + 9 R{3,6} + 9 R{3,11} + 9 R{3,17} + 9 R{3,24}
   + 9 R{3,25} + 9 R{3,35} + 9 R{3,38} + 9 R{4,8} + 9 R{4,22} + 9 R{4,24}
   + 9 R{4,30} + 9 R{4,32} + 9 R{4,38} + 9 R{4,47} + 9 R{4,49} + 9 R{6,41}
   <= 9
 R2_47: 7 R{0,0} + 7 R{0,1} + 7 R{0,2} + 7 R{0,9} + 7 R{0,13} + 7 R{0,24}
   + 7 R{0,28} + 7 R{0,38} + 7 R{0,39} + 7 R{0,40} + 7 R{0,42} + 7 R{0,43}
   + 7 R{0,47} + 7 R{0,49} + 7 R{1,1} + 7 R{1,2} + 7 R{1,3} + 7 R{1,7}
   + 7 R{1,31} <= 7
 R2_48: 4 R{0,16} + 4 R{0,27} + 4 R{4,1} + 4 R{4,2} + 4 R{4,3} + 4 R{4,4}
   + 4 R{4,5} + 4 R{4,6} + 4 R{4,7} + 4 R{4,9} + 4 R{4,10} + 4 R{4,11}
   + 4 R{4,13} + 4 R{4,14} + 4 R{4,15} + 4 R{4,16} + 4 R{4,23} + 4 R{4,26}
   + 4 R{4,27} + 4 R{4,28} + 4 R{4,29} + 4 R{4,30} + 4 R{4,31} + 4 R{4,34}
   + 4 R{4,35} + 4 R{4,36} + 4 R{4,37} + 4 R{4,39} + 4 R{4,43} + 4 R{4,44}
   + 4 R{4,45} + 4 R{4,48} + 4 R{4,49} + 4 R{4,50} <= 4
 R2_49: <= 0
 R2_50: <= 0
 R2_51: 11 R{0,23} + 11 R{0,32} + 11 R{0,51} + 11 R{1,19} + 11 R{1,22}
   + 11 R{1,27} + 11 R{1,36} + 11 R{1,38} + 11 R{3,12} + 11 R{6,28}
   + 11 R{6,30} + 11 R{6,35} + 11 R{6,39} + 11 R{6,47} <= 11
 R2_52: 10 R{0,47} + 10 R{4,38} + 10 R{4,39} + 10 R{4,42} + 10 R{4,43}
   + 10 R{4,46} <= 10
 R2_53: 13 R{4,1} + 13 R{4,2} + 13 R{4,3} + 13 R{4,6} + 13 R{4,7}
   + 13 R{4,8} + 13 R{4,9} + 13 R{4,10} + 13 R{4,11} + 13 R{4,13}
   + 13 R{4,16} + 13 R{4,17} + 13 R{4,19} + 13 R{4,21} + 13 R{4,23}
   + 13 R{4,25} + 13 R{4,27} + 13 R{4,28} + 13 R{4,29} + 13 R{4,30}
   + 13 R{4,34} + 13 R{4,36} + 13 R{4,39} + 13 R{4,45} + 13 R{4,47}
   + 13 R{4,48} <= 13
 R2_54: 9 R{0,20} + 9 R{0,21} + 9 R{0,24} + 9 R{0,29} + 9 R{0,38}
   + 9 R{0,41} + 9 R{0,45} + 9 R{0,50} + 9 R{3,1} + 9 R{3,2} + 9 R{3,3}
   + 9 R{3,4} + 9 R{3,5} + 9 R{3,7} + 9 R{3,8} + 9 R{3,9} + 9 R{3,10}
   + 9 R{3,12} + 9 R{3,13} + 9 R{3,15} + 9 R{3,16} + 9 R{3,19} + 9 R{3,20}
   + 9 R{3,21} + 9 R{3,23} + 9 R{3,28} + 9 R{3,31} + 9 R{3,32} + 9 R{3,34}
   + 9 R{3,36} + 9 R{3,37} + 9 R{3,39} <= 9
 R2_55: 8 R{0,33} + 8 R{0,35} + 8 R{0,39} + 8 R{0,40} + 8 R{0,42}
   + 8 R{0,49} + 8 R{3,32} + 8 R{4,34} + 8 R{6,35} + 8 R{6,37} + 8 R{6,39}
   + 8 R{6,47} <= 8
 R2_56: 6 R{0,1} + 6 R{0,2} + 6 R{0,7} + 6 R{0,9} + 6 R{0,12} + 6 R{0,13}
   + 6 R{0,16} + 6 R{0,20} + 6 R{0,28} + 6 R{0,39} + 6 R{0,43} + 6 R{0,47}
   + 6 R{0,49} + 6 R{3,2} + 6 R{3,3} + 6 R{3,4} + 6 R{3,5} + 6 R{3,7}
   + 6 R{3,8} + 6 R{3,10} + 6 R{3,15} + 6 R{3,23} + 6 R{3,31} + 6 R{3,32}
   + 6 R{3,36} + 6 R{3,39} + 6 R{4,4} + 6 R{4,15} + 6 R{4,50} + 6 R{6,2}
   + 6 R{6,3} + 6 R{6,8} + 6 R{6,9} + 6 R{6,14} + 6 R{6,16} + 6 R{6,21}
   + 6 R{6,23} + 6 R{6,24} + 6 R{6,40} + 6 R{6,44} + 6 R{6,45} + 6 R{6,46}
   + 6 R{6,49} <= 6
 R2_57: <= 0
 R2_58: 15 R{3,39} + 15 R{6,26} + 15 R{6,43} <= 15
 R2_59: 10 R{0,17} + 10 R{1,5} + 10 R{1,8} + 10 R{1,24} + 10 R{1,28}
   + 10 R{1,32} + 10 R{1,36} + 10 R{1,37} + 10 R{3,10} + 10 R{3,14}
   + 10 R{3,15} + 10 R{3,18} + 10 R{3,27} + 10 R{3,33} + 10 R{4,5}
   + 10 R{4,14} + 10 R{6,19} + 10 R{6,29} + 10 R{6,35} + 10 R{6,50} <= 10
 R2_60: <= 0
 R2_61: 9 R{0,51} + 9 R{3,14} + 9 R{3,16} + 9 R{3,18} + 9 R{3,22}
   + 9 R{3,26} + 9 R{3,27} + 9 R{3,28} + 9 R{3,33} + 9 R{3,37} + 9 R{4,6}
   + 9 R{4,8} + 9 R{4,12} + 9 R{4,13} + 9 R{4,21} + 9 R{4,22} + 9 R{4,24}
   + 9 R{4,32} + 9 R{4,33} + 9 R{4,34} + 9 R{4,35} + 9 R{4,37} + 9 R{4,38}
   + 9 R{4,40} + 9 R{4,42} + 9 R{4,44} + 9 R{4,46} + 9 R{6,14} + 9 R{6,16}
   + 9 R{6,20} + 9 R{6,23} + 9 R{6,27} + 9 R{6,30} + 9 R{6,31} + 9 R{6,38}
   + 9 R{6,41} + 9 R{6,49} + 9 R{6,51} <= 9
 R2_62: <= 0
 R2_63: <= 0
 R2_64: <= 0
 R2_65: <= 5
 R2_66: 7 R{1,30} + 7 R{1,38} + 7 R{2,15} + 7 R{3,4} + 7 R{3,6} + 7 R{3,20}
   + 7 R{3,23} + 7 R{3,25} + 7 R{3,36} + 7 R{3,38} + 7 R{6,22} + 7 R{6,23}
   + 7 R{6,25} + 7 R{6,27} + 7 R{6,36} + 7 R{6,41} + 7 R{6,45} + 7 R{6,49}
   + 7 R{6,50} <= 7
 R2_67: 3 R{0,19} + 3 R{0,21} + 3 R{0,23} + 3 R{0,26} + 3 R{0,30}
   + 3 R{0,32} + 3 R{0,44} + 3 R{0,48} + 3 R{0,51} + 3 R{3,2} + 3 R{3,3}
   + 3 R{3,4} + 3 R{3,5} + 3 R{3,6} + 3 R{3,8} + 3 R{3,10} + 3 R{3,14}
   + 3 R{3,16} + 3 R{3,18} + 3 R{3,24} + 3 R{3,28} + 3 R{3,31} + 3 R{3,36}
   + 3 R{3,37} + 3 R{3,38} + 3 R{6,4} + 3 R{6,6} + 3 R{6,7} + 3 R{6,10}
   + 3 R{6,11} + 3 R{6,13} + 3 R{6,15} + 3 R{6,18} + 3 R{6,22} + 3 R{6,24}
   + 3 R{6,25} + 3 R{6,26} + 3 R{6,28} + 3 R{6,33} + 3 R{6,35} + 3 R{6,36}
   + 3 R{6,37} + 3 R{6,39} + 3 R{6,42} + 3 R{6,47} + 3 R{6,48} <= 3
 R2_68: 6 R{0,36} + 6 R{0,41} + 6 R{1,38} + 6 R{3,14} + 6 R{3,22}
   + 6 R{3,26} + 6 R{3,27} + 6 R{3,29} + 6 R{3,30} + 6 R{3,33} + 6 R{4,1}
   + 6 R{4,9} + 6 R{4,16} + 6 R{5,9} + 6 R{5,12} + 6 R{5,13} + 6 R{5,14}
   + 6 R{6,31} + 6 R{6,51} <= 6
 R2_69: 7 R{0,0} + 7 R{0,1} + 7 R{0,2} + 7 R{0,8} + 7 R{0,9} + 7 R{0,11}
   + 7 R{0,13} + 7 R{0,14} + 7 R{0,15} + 7 R{0,19} + 7 R{0,23} + 7 R{0,28}
   + 7 R{0,32} + 7 R{0,35} + 7 R{0,36} + 7 R{0,38} + 7 R{0,39} + 7 R{0,40}
   + 7 R{0,42} + 7 R{0,47} + 7 R{0,49} + 7 R{0,51} + 7 R{1,13} + 7 R{1,16}
   + 7 R{1,22} + 7 R{1,24} + 7 R{1,28} + 7 R{1,31} + 7 R{1,33} + 7 R{1,36}
   + 7 R{1,39} + 7 R{2,7} + 7 R{2,10} + 7 R{2,15} + 7 R{3,14} + 7 R{3,18}
   + 7 R{3,22} + 7 R{3,27} + 7 R{3,29} + 7 R{3,30} + 7 R{4,1} + 7 R{4,2}
   + 7 R{4,3} + 7 R{4,4} + 7 R{4,5} + 7 R{4,6} + 7 R{4,7} + 7 R{4,8}
   + 7 R{4,9} + 7 R{4,10} + 7 R{4,11} + 7 R{4,12} + 7 R{4,13} + 7 R{4,15}
   + 7 R{4,16} + 7 R{4,17} + 7 R{4,19} + 7 R{4,21} + 7 R{4,23} + 7 R{4,25}
   + 7 R{4,26} + 7 R{4,27} + 7 R{4,28} + 7 R{4,29} + 7 R{4,31} + 7 R{4,34}
   + 7 R{4,36} + 7 R{4,39} + 7 R{4,45} + 7 R{4,49} + 7 R{4,50} + 7 R{5,3}
   + 7 R{5,4} + 7 R{5,7} + 7 R{5,9} + 7 R{5,12} + 7 R{5,13} + 7 R{5,14}
   + 7 R{5,16} + 7 R{5,18} + 7 R{5,21} + 7 R{6,25} + 7 R{6,27} + 7 R{6,29}
   + 7 R{6,31} + 7 R{6,33} + 7 R{6,35} + 7 R{6,39} + 7 R{6,41} + 7 R{6,43}
   + 7 R{6,46} + 7 R{6,48} + 7 R{6,51} <= 7
 R2_70: 11 R{6,1} + 11 R{6,2} + 11 R{6,3} + 11 R{6,4} + 11 R{6,8}
   + 11 R{6,14} + 11 R{6,21} + 11 R{6,23} + 11 R{6,44} <= 11
 R2_71: 7 R{0,12} + 7 R{3,1} + 7 R{3,2} + 7 R{3,3} + 7 R{3,4} + 7 R{3,6}
   + 7 R{3,9} + 7 R{3,10} + 7 R{3,20} + 7 R{3,23} + 7 R{3,25} + 7 R{3,34}
   + 7 R{3,38} + 7 R{5,17} + 7 R{6,2} + 7 R{6,3} + 7 R{6,5} + 7 R{6,8}
   + 7 R{6,12} + 7 R{6,14} + 7 R{6,19} + 7 R{6,23} + 7 R{6,43} + 7 R{6,44}
   + 7 R{6,45} + 7 R{6,46} + 7 R{6,49} <= 7
 R2_72: <= 0
 R2_73: 11 R{0,0} + 11 R{0,1} + 11 R{0,2} + 11 R{0,6} + 11 R{0,7}
   + 11 R{0,8} + 11 R{0,9} + 11 R{0,11} + 11 R{0,12} + 11 R{0,13}
   + 11 R{0,14} + 11 R{0,15} + 11 R{0,16} + 11 R{0,17} + 11 R{0,18}
   + 11 R{0,20} + 11 R{0,22} + 11 R{0,24} + 11 R{0,25} + 11 R{0,27}
   + 11 R{0,28} + 11 R{0,29} + 11 R{0,31} + 11 R{0,33} + 11 R{0,34}
   + 11 R{0,35} + 11 R{0,36} + 11 R{0,37} + 11 R{0,38} + 11 R{0,39}
   + 11 R{0,40} + 11 R{0,41} + 11 R{0,42} + 11 R{0,43} + 11 R{0,45}
   + 11 R{0,46} + 11 R{0,47} + 11 R{0,49} + 11 R{0,50} + 11 R{0,52} <= 11
 R2_74: 5 R{5,1} + 5 R{5,2} + 5 R{5,3} + 5 R{5,4} + 5 R{5,5} + 5 R{5,6}
   + 5 R{5,7} + 5 R{5,12} + 5 R{5,19} + 5 R{5,20} + 5 R{5,21} + 5 R{5,22}
   <= 5
 R2_75: 8 R{0,30} + 8 R{6,1} + 8 R{6,2} + 8 R{6,3} + 8 R{6,4} + 8 R{6,5}
   + 8 R{6,6} + 8 R{6,7} + 8 R{6,8} + 8 R{6,9} + 8 R{6,11} + 8 R{6,12}
   + 8 R{6,13} + 8 R{6,14} + 8 R{6,15} + 8 R{6,16} + 8 R{6,17} + 8 R{6,18}
   + 8 R{6,20} + 8 R{6,21} + 8 R{6,23} + 8 R{6,24} + 8 R{6,28} + 8 R{6,32}
   + 8 R{6,36} + 8 R{6,37} + 8 R{6,39} + 8 R{6,40} + 8 R{6,42} + 8 R{6,43}
   + 8 R{6,44} + 8 R{6,45} + 8 R{6,47} + 8 R{6,48} + 8 R{6,49} <= 8
 R2_76: 12 R{0,4} + 12 R{1,4} + 12 R{1,6} + 12 R{1,14} + 12 R{1,18}
   + 12 R{1,20} + 12 R{1,30} + 12 R{1,34} + 12 R{3,3} + 12 R{3,4}
   + 12 R{3,6} + 12 R{3,11} + 12 R{3,17} + 12 R{3,38} + 12 R{5,3}
   + 12 R{5,4} + 12 R{5,5} + 12 R{5,6} + 12 R{5,8} + 12 R{5,10}
   + 12 R{5,11} + 12 R{5,12} + 12 R{5,15} + 12 R{5,18} + 12 R{5,20}
   + 12 R{5,21} + 12 R{6,5} + 12 R{6,7} + 12 R{6,12} + 12 R{6,43} <= 12
 R2_77: 7 R{0,1} + 7 R{0,2} + 4 R{0,6} + 7 R{0,8} + 7 R{0,10} + 7 R{0,12}
   + 7 R{0,14} + 7 R{0,17} + 7 R{0,18} + 7 R{0,20} + 4 R{0,22} + 7 R{0,24}
   + 4 R{0,34} + 7 R{1,2} + 7 R{1,3} + 7 R{1,5} + 7 R{1,15} + 7 R{1,24}
   + 7 R{2,2} + 7 R{2,3} + 5 R{2,4} + 5 R{2,6} + 7 R{2,8} + 5 R{2,13}
   + 7 R{3,5} + 7 R{3,7} + 7 R{3,11} + 7 R{3,13} + 7 R{3,15} + 7 R{3,17}
   + 7 R{3,19} + 7 R{3,21} + 7 R{3,24} + 7 R{3,31} + 7 R{3,32} + 7 R{3,35}
   + 7 R{4,2} + 7 R{4,3} + 7 R{4,5} + 7 R{4,7} + 7 R{4,15} + 7 R{5,8}
   + 7 R{5,10} + 7 R{5,11} + 7 R{5,15} + 7 R{6,3} + 7 R{6,4} + 7 R{6,6}
   + 7 R{6,8} + 7 R{6,9} + 7 R{6,10} + 7 R{6,11} + 7 R{6,12} + 7 R{6,14}
   + 7 R{6,15} + 7 R{6,16} + 7 R{6,18} + 7 R{6,20} + 7 R{6,42} + 7 R{6,44}
   + 7 R{6,48} <= 7
Bounds
End
